(set-logic HORN)
(set-info :source |
    Benchmark: C_VC
    Output by Princess (http://www.philipp.ruemmer.org/princess.shtml)
|)
(set-info :status sat)
(declare-heap Heap Addr HeapObject
 defObj
 ((HeapObject 0)) (
  (
   (O_Int (getInt Int))
   (O_UInt (getUInt Int))
   (O_Addr (getAddr Addr))
   (defObj)
  )
))
(declare-fun inv_main2 (Heap Int) Bool)
(declare-fun inv_main27 (Heap Int Int Int AddrRange Int Int Int) Bool)
(declare-fun inv_main32 (Heap Int Int Int AddrRange Int Int Int) Bool)
(declare-fun inv_main33 (Heap Int Int Int AddrRange Int Int Int) Bool)
(declare-fun inv_main35 (Heap Int Int Int AddrRange Int Int Int) Bool)
(declare-fun inv_main36 (Heap Int Int Int AddrRange Int Int Int) Bool)
(declare-fun inv_main37 (Heap Int Int Int AddrRange Int Int Int) Bool)
(declare-fun inv_main38 (Heap Int Int Int AddrRange Int Int Int) Bool)
(declare-fun inv_main40 (Heap Int Int Int AddrRange Int Int Int) Bool)
(declare-fun inv_main43 (Heap Int Int Int AddrRange Int Int Int Int) Bool)
(assert (forall ((var0 Int) (var1 Heap)) (or (not (and (= var1 emptyHeap) (= var0 0))) (inv_main2 var1 var0))))
(assert (forall ((var0 Int) (var1 Int) (var2 AddrRange) (var3 Int) (var4 Int) (var5 Heap) (var6 Int) (var7 Int) (var8 Int) (var9 Int) (var10 Int) (var11 AddrRange) (var12 Int) (var13 Int) (var14 Int) (var15 Heap)) (or (not (and (inv_main32 var15 var14 var13 var12 var11 var10 var9 var8) (and (and (<= 0 (+ var7 (* (- 1) var6))) (and (is-O_Int (read var15 (nthAddrRange var11 (+ (* 3 var12) (- 3))))) (is-O_Int (read var15 (nthAddrRange var11 (+ (* 3 var12) (- 3))))))) (and (and (and (and (and (and (and (= var5 (write var15 (nthAddrRange var11 (+ (* 3 var12) (- 3))) (O_Int var10))) (= var4 var14)) (= var6 var13)) (= var3 var12)) (= var2 var11)) (= var1 var10)) (= var7 var9)) (= var0 var8))))) (inv_main35 var5 var4 var6 var3 var2 var1 var7 var0))))
(assert (forall ((var0 Int) (var1 Int) (var2 AddrRange) (var3 Int) (var4 Int) (var5 Heap) (var6 Int) (var7 Int) (var8 Int) (var9 Int) (var10 Int) (var11 AddrRange) (var12 Int) (var13 Int) (var14 Int) (var15 Heap)) (or (not (and (inv_main33 var15 var14 var13 var12 var11 var10 var9 var8) (and (and (<= 0 (+ var7 (* (- 1) var6))) (and (is-O_Int (read var15 (nthAddrRange var11 (+ (* 3 var12) (- 3))))) (is-O_Int (read var15 (nthAddrRange var11 (+ (* 3 var12) (- 3))))))) (and (and (and (and (and (and (and (= var5 (write var15 (nthAddrRange var11 (+ (* 3 var12) (- 3))) (O_Int 0))) (= var4 var14)) (= var6 var13)) (= var3 var12)) (= var2 var11)) (= var1 var10)) (= var7 var9)) (= var0 var8))))) (inv_main35 var5 var4 var6 var3 var2 var1 var7 var0))))
(assert (forall ((var0 Int) (var1 Int) (var2 Int) (var3 Int) (var4 AddrRange) (var5 Int) (var6 Int) (var7 Int) (var8 Heap) (var9 Int) (var10 Int) (var11 Int) (var12 AddrRange) (var13 Int) (var14 Int) (var15 Int) (var16 Heap)) (or (not (and (inv_main37 var16 var15 var14 var13 var12 var11 var10 var9) (and (and (and (is-O_Int (read var16 (nthAddrRange var12 (+ (* 3 var13) (- 1))))) (is-O_Int (read var16 (nthAddrRange var12 (+ (* 3 var13) (- 1)))))) (and (and (and (and (and (and (and (= var8 (write var16 (nthAddrRange var12 (+ (* 3 var13) (- 1))) (O_Int var9))) (= var7 var15)) (= var6 var14)) (= var5 var13)) (= var4 var12)) (= var3 var11)) (= var2 var10)) (= var1 var9))) (= var0 (+ var5 1))))) (inv_main27 var8 var7 var6 var0 var4 var3 var2 var1))))
(assert (forall ((var0 Int) (var1 Int) (var2 Int) (var3 Int) (var4 AddrRange) (var5 Int) (var6 Int) (var7 Int) (var8 Heap) (var9 Int) (var10 Int) (var11 Int) (var12 AddrRange) (var13 Int) (var14 Int) (var15 Int) (var16 Heap)) (or (not (and (inv_main38 var16 var15 var14 var13 var12 var11 var10 var9) (and (and (and (is-O_Int (read var16 (nthAddrRange var12 (+ (* 3 var13) (- 1))))) (is-O_Int (read var16 (nthAddrRange var12 (+ (* 3 var13) (- 1)))))) (and (and (and (and (and (and (and (= var8 (write var16 (nthAddrRange var12 (+ (* 3 var13) (- 1))) (O_Int 0))) (= var7 var15)) (= var6 var14)) (= var5 var13)) (= var4 var12)) (= var3 var11)) (= var2 var10)) (= var1 var9))) (= var0 (+ var5 1))))) (inv_main27 var8 var7 var6 var0 var4 var3 var2 var1))))
(assert (forall ((var0 Int) (var1 Int) (var2 Int) (var3 Int) (var4 Int) (var5 Int) (var6 Int) (var7 Int) (var8 AddrRange) (var9 AddrRange) (var10 Int) (var11 Int) (var12 Int) (var13 Int) (var14 Int) (var15 Int) (var16 Heap) (var17 Heap) (var18 Int) (var19 Int) (var20 Heap) (var21 Int) (var22 Int) (var23 Int) (var24 Int) (var25 Int) (var26 Int)) (or (not (and (inv_main2 var20 var19) (and (and (and (and (and (not (= var18 0)) (and (and (and (and (and (and (and (and (= var17 var16) (= var15 var14)) (= var13 var12)) (= var11 var10)) (= var9 var8)) (= var7 7)) (= var6 3)) (= var5 1)) (or (and (and (and (and (and (and (<= 0 (+ (+ 3 (* (- 1) var21)) (- 1))) (<= 0 (+ (+ 3 (* 1 var21)) (- 1)))) (or (not (<= 0 (+ var21 (- 1)))) (<= 0 (+ var14 (- 1))))) (or (not (<= 0 (+ (* (- 1) var21) (- 1)))) (<= 0 (+ (* (- 1) var14) (- 1))))) (= var14 (+ (* 3 var22) var21))) (= var21 0)) (= var18 1)) (and (not (or (not (and (and (and (and (<= 0 (+ (+ 3 (* (- 1) var23)) (- 1))) (<= 0 (+ (+ 3 (* 1 var23)) (- 1)))) (or (not (<= 0 (+ var23 (- 1)))) (<= 0 (+ var14 (- 1))))) (or (not (<= 0 (+ (* (- 1) var23) (- 1)))) (<= 0 (+ (* (- 1) var14) (- 1))))) (= var14 (+ (* 3 var24) var23)))) (= var23 0))) (= var18 0))))) (and (and (and (and (and (<= 0 (+ (+ 3 (* (- 1) var25)) (- 1))) (<= 0 (+ (+ 3 (* 1 var25)) (- 1)))) (or (not (<= 0 (+ var25 (- 1)))) (<= 0 (+ var14 (- 1))))) (or (not (<= 0 (+ (* (- 1) var25) (- 1)))) (<= 0 (+ (* (- 1) var14) (- 1))))) (= var14 (+ (* 3 var26) var25))) (= var25 0))) (and (and (and (and (= var16 (newBatchHeap (batchAlloc emptyHeap (O_Int var4) var3))) (= var14 var3)) (= var12 var2)) (= var10 var1)) (= var8 (newAddrRange (batchAlloc emptyHeap (O_Int var4) var3))))) (<= 0 (+ (+ var3 (- 1)) (- 1)))) (= var0 1)))) (inv_main27 var17 var15 var13 var0 var9 var7 var6 var5))))
(assert (forall ((var0 Int) (var1 Int) (var2 AddrRange) (var3 Int) (var4 Int) (var5 Heap) (var6 Int) (var7 Int) (var8 Int) (var9 Int) (var10 Int) (var11 AddrRange) (var12 Int) (var13 Int) (var14 Int) (var15 Heap)) (or (not (and (inv_main35 var15 var14 var13 var12 var11 var10 var9 var8) (and (and (not (<= 0 (+ var7 (* (- 1) var6)))) (and (is-O_Int (read var15 (nthAddrRange var11 (+ (* 3 var12) (- 2))))) (is-O_Int (read var15 (nthAddrRange var11 (+ (* 3 var12) (- 2))))))) (and (and (and (and (and (and (and (= var5 (write var15 (nthAddrRange var11 (+ (* 3 var12) (- 2))) (O_Int var9))) (= var4 var14)) (= var6 var13)) (= var3 var12)) (= var2 var11)) (= var1 var10)) (= var0 var9)) (= var7 var8))))) (inv_main38 var5 var4 var6 var3 var2 var1 var0 var7))))
(assert (forall ((var0 Int) (var1 Int) (var2 AddrRange) (var3 Int) (var4 Int) (var5 Heap) (var6 Int) (var7 Int) (var8 Int) (var9 Int) (var10 Int) (var11 AddrRange) (var12 Int) (var13 Int) (var14 Int) (var15 Heap)) (or (not (and (inv_main36 var15 var14 var13 var12 var11 var10 var9 var8) (and (and (not (<= 0 (+ var7 (* (- 1) var6)))) (and (is-O_Int (read var15 (nthAddrRange var11 (+ (* 3 var12) (- 2))))) (is-O_Int (read var15 (nthAddrRange var11 (+ (* 3 var12) (- 2))))))) (and (and (and (and (and (and (and (= var5 (write var15 (nthAddrRange var11 (+ (* 3 var12) (- 2))) (O_Int 0))) (= var4 var14)) (= var6 var13)) (= var3 var12)) (= var2 var11)) (= var1 var10)) (= var0 var9)) (= var7 var8))))) (inv_main38 var5 var4 var6 var3 var2 var1 var0 var7))))
(assert (forall ((var0 Int) (var1 Int) (var2 Int) (var3 Int) (var4 AddrRange) (var5 Int) (var6 Int) (var7 Int) (var8 Heap) (var9 Int) (var10 Int) (var11 Int) (var12 AddrRange) (var13 Int) (var14 Int) (var15 Int) (var16 Heap)) (or (not (and (inv_main40 var16 var15 var14 var13 var12 var11 var10 var9) (and (and (and (is-O_Int (read var16 (nthAddrRange var12 var13))) (not (<= 0 (+ (getInt (read var16 (nthAddrRange var12 var13))) (* (- 1) var14))))) (is-O_Int (read var16 (nthAddrRange var12 var13)))) (and (and (and (and (and (and (and (and (= var8 var16) (= var7 var15)) (= var6 var14)) (= var5 var13)) (= var4 var12)) (= var3 var11)) (= var2 var10)) (= var1 var9)) (or (and (= (getInt (read var16 (nthAddrRange var12 var13))) 0) (= var0 1)) (and (not (= (getInt (read var16 (nthAddrRange var12 var13))) 0)) (= var0 0))))))) (inv_main43 var8 var7 var6 var5 var4 var3 var2 var1 var0))))
(assert (forall ((var0 Int) (var1 Int) (var2 Int) (var3 Int) (var4 AddrRange) (var5 Int) (var6 Int) (var7 Int) (var8 Heap)) (or (not (and (inv_main40 var8 var7 var6 var5 var4 var3 var2 var1) (and (and (is-O_Int (read var8 (nthAddrRange var4 var5))) (<= 0 (+ (getInt (read var8 (nthAddrRange var4 var5))) (* (- 1) var6)))) (= var0 1)))) (inv_main43 var8 var7 var6 var5 var4 var3 var2 var1 var0))))
(assert (forall ((var0 Int) (var1 Int) (var2 AddrRange) (var3 Int) (var4 Int) (var5 Heap) (var6 Int) (var7 Int) (var8 Int) (var9 Int) (var10 Int) (var11 AddrRange) (var12 Int) (var13 Int) (var14 Int) (var15 Heap)) (or (not (and (inv_main32 var15 var14 var13 var12 var11 var10 var9 var8) (and (and (not (<= 0 (+ var7 (* (- 1) var6)))) (and (is-O_Int (read var15 (nthAddrRange var11 (+ (* 3 var12) (- 3))))) (is-O_Int (read var15 (nthAddrRange var11 (+ (* 3 var12) (- 3))))))) (and (and (and (and (and (and (and (= var5 (write var15 (nthAddrRange var11 (+ (* 3 var12) (- 3))) (O_Int var10))) (= var4 var14)) (= var6 var13)) (= var3 var12)) (= var2 var11)) (= var1 var10)) (= var7 var9)) (= var0 var8))))) (inv_main36 var5 var4 var6 var3 var2 var1 var7 var0))))
(assert (forall ((var0 Int) (var1 Int) (var2 AddrRange) (var3 Int) (var4 Int) (var5 Heap) (var6 Int) (var7 Int) (var8 Int) (var9 Int) (var10 Int) (var11 AddrRange) (var12 Int) (var13 Int) (var14 Int) (var15 Heap)) (or (not (and (inv_main33 var15 var14 var13 var12 var11 var10 var9 var8) (and (and (not (<= 0 (+ var7 (* (- 1) var6)))) (and (is-O_Int (read var15 (nthAddrRange var11 (+ (* 3 var12) (- 3))))) (is-O_Int (read var15 (nthAddrRange var11 (+ (* 3 var12) (- 3))))))) (and (and (and (and (and (and (and (= var5 (write var15 (nthAddrRange var11 (+ (* 3 var12) (- 3))) (O_Int 0))) (= var4 var14)) (= var6 var13)) (= var3 var12)) (= var2 var11)) (= var1 var10)) (= var7 var9)) (= var0 var8))))) (inv_main36 var5 var4 var6 var3 var2 var1 var7 var0))))
(assert (forall ((var0 Int) (var1 Int) (var2 AddrRange) (var3 Int) (var4 Int) (var5 Heap) (var6 Int) (var7 Int) (var8 Int) (var9 Int) (var10 Int) (var11 AddrRange) (var12 Int) (var13 Int) (var14 Int) (var15 Heap)) (or (not (and (inv_main35 var15 var14 var13 var12 var11 var10 var9 var8) (and (and (<= 0 (+ var7 (* (- 1) var6))) (and (is-O_Int (read var15 (nthAddrRange var11 (+ (* 3 var12) (- 2))))) (is-O_Int (read var15 (nthAddrRange var11 (+ (* 3 var12) (- 2))))))) (and (and (and (and (and (and (and (= var5 (write var15 (nthAddrRange var11 (+ (* 3 var12) (- 2))) (O_Int var9))) (= var4 var14)) (= var6 var13)) (= var3 var12)) (= var2 var11)) (= var1 var10)) (= var0 var9)) (= var7 var8))))) (inv_main37 var5 var4 var6 var3 var2 var1 var0 var7))))
(assert (forall ((var0 Int) (var1 Int) (var2 AddrRange) (var3 Int) (var4 Int) (var5 Heap) (var6 Int) (var7 Int) (var8 Int) (var9 Int) (var10 Int) (var11 AddrRange) (var12 Int) (var13 Int) (var14 Int) (var15 Heap)) (or (not (and (inv_main36 var15 var14 var13 var12 var11 var10 var9 var8) (and (and (<= 0 (+ var7 (* (- 1) var6))) (and (is-O_Int (read var15 (nthAddrRange var11 (+ (* 3 var12) (- 2))))) (is-O_Int (read var15 (nthAddrRange var11 (+ (* 3 var12) (- 2))))))) (and (and (and (and (and (and (and (= var5 (write var15 (nthAddrRange var11 (+ (* 3 var12) (- 2))) (O_Int 0))) (= var4 var14)) (= var6 var13)) (= var3 var12)) (= var2 var11)) (= var1 var10)) (= var0 var9)) (= var7 var8))))) (inv_main37 var5 var4 var6 var3 var2 var1 var0 var7))))
(assert (forall ((var0 Int) (var1 Int) (var2 Int) (var3 AddrRange) (var4 Int) (var5 Int) (var6 Int) (var7 Heap) (var8 Int)) (or (not (and (inv_main27 var7 var6 var5 var4 var3 var2 var1 var0) (and (not (<= 0 (+ var2 (* (- 1) var5)))) (and (and (and (and (<= 0 (+ (+ 3 (* (- 1) (+ var6 (* (- 3) var8)))) (- 1))) (<= 0 (+ (+ 3 (* 1 (+ var6 (* (- 3) var8)))) (- 1)))) (or (not (<= 0 (+ (+ var6 (* (- 3) var8)) (- 1)))) (<= 0 (+ var6 (- 1))))) (or (not (<= 0 (+ (* (- 1) (+ var6 (* (- 3) var8))) (- 1)))) (<= 0 (+ (* (- 1) var6) (- 1))))) (<= 0 (+ var8 (* (- 1) var4))))))) (inv_main33 var7 var6 var5 var4 var3 var2 var1 var0))))
(assert (forall ((var0 Int) (var1 Int) (var2 Int) (var3 AddrRange) (var4 Int) (var5 Int) (var6 Int) (var7 Heap) (var8 Int)) (or (not (and (inv_main27 var7 var6 var5 var4 var3 var2 var1 var0) (and (<= 0 (+ var2 (* (- 1) var5))) (and (and (and (and (<= 0 (+ (+ 3 (* (- 1) (+ var6 (* (- 3) var8)))) (- 1))) (<= 0 (+ (+ 3 (* 1 (+ var6 (* (- 3) var8)))) (- 1)))) (or (not (<= 0 (+ (+ var6 (* (- 3) var8)) (- 1)))) (<= 0 (+ var6 (- 1))))) (or (not (<= 0 (+ (* (- 1) (+ var6 (* (- 3) var8))) (- 1)))) (<= 0 (+ (* (- 1) var6) (- 1))))) (<= 0 (+ var8 (* (- 1) var4))))))) (inv_main32 var7 var6 var5 var4 var3 var2 var1 var0))))
(assert (forall ((var0 Int) (var1 Int) (var2 Int) (var3 Int) (var4 AddrRange) (var5 Int) (var6 Int) (var7 Int) (var8 Heap) (var9 Int)) (or (not (and (inv_main27 var8 var7 var6 var5 var4 var3 var2 var1) (and (and (<= 0 (+ var7 (- 1))) (not (or (not (and (and (and (<= 0 (+ (+ 3 (* (- 1) (+ var7 (* (- 3) var9)))) (- 1))) (<= 0 (+ (+ 3 (* 1 (+ var7 (* (- 3) var9)))) (- 1)))) (or (not (<= 0 (+ (+ var7 (* (- 3) var9)) (- 1)))) (<= 0 (+ var7 (- 1))))) (or (not (<= 0 (+ (* (- 1) (+ var7 (* (- 3) var9))) (- 1)))) (<= 0 (+ (* (- 1) var7) (- 1)))))) (<= 0 (+ var9 (* (- 1) var5)))))) (= var0 0)))) (inv_main40 var8 var7 var6 var0 var4 var3 var2 var1))))
(assert (forall ((var0 Int) (var1 Int) (var2 Int) (var3 Int) (var4 Int) (var5 AddrRange) (var6 Int) (var7 Int) (var8 Int) (var9 Heap)) (or (not (and (inv_main43 var9 var8 var7 var6 var5 var4 var3 var2 var1) (and (<= 0 (+ (+ var8 (* (- 1) (+ var6 1))) (- 1))) (= var0 (+ var6 1))))) (inv_main40 var9 var8 var7 var0 var5 var4 var3 var2))))
(assert (forall ((var0 Int) (var1 Int) (var2 Int) (var3 AddrRange) (var4 Int) (var5 Int) (var6 Int) (var7 Heap)) (not (and (inv_main32 var7 var6 var5 var4 var3 var2 var1 var0) (not (is-O_Int (read var7 (nthAddrRange var3 (+ (* 3 var4) (- 3))))))))))
(assert (forall ((var0 Int) (var1 Int) (var2 Int) (var3 AddrRange) (var4 Int) (var5 Int) (var6 Int) (var7 Heap)) (not (and (inv_main32 var7 var6 var5 var4 var3 var2 var1 var0) (and (is-O_Int (read var7 (nthAddrRange var3 (+ (* 3 var4) (- 3))))) (not (within var3 (nthAddrRange var3 (+ (* 3 var4) (- 3))))))))))
(assert (forall ((var0 Int) (var1 Int) (var2 Int) (var3 AddrRange) (var4 Int) (var5 Int) (var6 Int) (var7 Heap)) (not (and (inv_main32 var7 var6 var5 var4 var3 var2 var1 var0) (and (is-O_Int (read var7 (nthAddrRange var3 (+ (* 3 var4) (- 3))))) (not (is-O_Int (read var7 (nthAddrRange var3 (+ (* 3 var4) (- 3)))))))))))
(assert (forall ((var0 Int) (var1 Int) (var2 Int) (var3 AddrRange) (var4 Int) (var5 Int) (var6 Int) (var7 Heap)) (not (and (inv_main33 var7 var6 var5 var4 var3 var2 var1 var0) (not (is-O_Int (read var7 (nthAddrRange var3 (+ (* 3 var4) (- 3))))))))))
(assert (forall ((var0 Int) (var1 Int) (var2 Int) (var3 AddrRange) (var4 Int) (var5 Int) (var6 Int) (var7 Heap)) (not (and (inv_main33 var7 var6 var5 var4 var3 var2 var1 var0) (and (is-O_Int (read var7 (nthAddrRange var3 (+ (* 3 var4) (- 3))))) (not (within var3 (nthAddrRange var3 (+ (* 3 var4) (- 3))))))))))
(assert (forall ((var0 Int) (var1 Int) (var2 Int) (var3 AddrRange) (var4 Int) (var5 Int) (var6 Int) (var7 Heap)) (not (and (inv_main33 var7 var6 var5 var4 var3 var2 var1 var0) (and (is-O_Int (read var7 (nthAddrRange var3 (+ (* 3 var4) (- 3))))) (not (is-O_Int (read var7 (nthAddrRange var3 (+ (* 3 var4) (- 3)))))))))))
(assert (forall ((var0 Int) (var1 Int) (var2 Int) (var3 AddrRange) (var4 Int) (var5 Int) (var6 Int) (var7 Heap)) (not (and (inv_main35 var7 var6 var5 var4 var3 var2 var1 var0) (not (is-O_Int (read var7 (nthAddrRange var3 (+ (* 3 var4) (- 2))))))))))
(assert (forall ((var0 Int) (var1 Int) (var2 Int) (var3 AddrRange) (var4 Int) (var5 Int) (var6 Int) (var7 Heap)) (not (and (inv_main35 var7 var6 var5 var4 var3 var2 var1 var0) (and (is-O_Int (read var7 (nthAddrRange var3 (+ (* 3 var4) (- 2))))) (not (within var3 (nthAddrRange var3 (+ (* 3 var4) (- 2))))))))))
(assert (forall ((var0 Int) (var1 Int) (var2 Int) (var3 AddrRange) (var4 Int) (var5 Int) (var6 Int) (var7 Heap)) (not (and (inv_main35 var7 var6 var5 var4 var3 var2 var1 var0) (and (is-O_Int (read var7 (nthAddrRange var3 (+ (* 3 var4) (- 2))))) (not (is-O_Int (read var7 (nthAddrRange var3 (+ (* 3 var4) (- 2)))))))))))
(assert (forall ((var0 Int) (var1 Int) (var2 Int) (var3 AddrRange) (var4 Int) (var5 Int) (var6 Int) (var7 Heap)) (not (and (inv_main36 var7 var6 var5 var4 var3 var2 var1 var0) (not (is-O_Int (read var7 (nthAddrRange var3 (+ (* 3 var4) (- 2))))))))))
(assert (forall ((var0 Int) (var1 Int) (var2 Int) (var3 AddrRange) (var4 Int) (var5 Int) (var6 Int) (var7 Heap)) (not (and (inv_main36 var7 var6 var5 var4 var3 var2 var1 var0) (and (is-O_Int (read var7 (nthAddrRange var3 (+ (* 3 var4) (- 2))))) (not (within var3 (nthAddrRange var3 (+ (* 3 var4) (- 2))))))))))
(assert (forall ((var0 Int) (var1 Int) (var2 Int) (var3 AddrRange) (var4 Int) (var5 Int) (var6 Int) (var7 Heap)) (not (and (inv_main36 var7 var6 var5 var4 var3 var2 var1 var0) (and (is-O_Int (read var7 (nthAddrRange var3 (+ (* 3 var4) (- 2))))) (not (is-O_Int (read var7 (nthAddrRange var3 (+ (* 3 var4) (- 2)))))))))))
(assert (forall ((var0 Int) (var1 Int) (var2 Int) (var3 AddrRange) (var4 Int) (var5 Int) (var6 Int) (var7 Heap)) (not (and (inv_main37 var7 var6 var5 var4 var3 var2 var1 var0) (not (is-O_Int (read var7 (nthAddrRange var3 (+ (* 3 var4) (- 1))))))))))
(assert (forall ((var0 Int) (var1 Int) (var2 Int) (var3 AddrRange) (var4 Int) (var5 Int) (var6 Int) (var7 Heap)) (not (and (inv_main37 var7 var6 var5 var4 var3 var2 var1 var0) (and (is-O_Int (read var7 (nthAddrRange var3 (+ (* 3 var4) (- 1))))) (not (within var3 (nthAddrRange var3 (+ (* 3 var4) (- 1))))))))))
(assert (forall ((var0 Int) (var1 Int) (var2 Int) (var3 AddrRange) (var4 Int) (var5 Int) (var6 Int) (var7 Heap)) (not (and (inv_main37 var7 var6 var5 var4 var3 var2 var1 var0) (and (is-O_Int (read var7 (nthAddrRange var3 (+ (* 3 var4) (- 1))))) (not (is-O_Int (read var7 (nthAddrRange var3 (+ (* 3 var4) (- 1)))))))))))
(assert (forall ((var0 Int) (var1 Int) (var2 Int) (var3 AddrRange) (var4 Int) (var5 Int) (var6 Int) (var7 Heap)) (not (and (inv_main38 var7 var6 var5 var4 var3 var2 var1 var0) (not (is-O_Int (read var7 (nthAddrRange var3 (+ (* 3 var4) (- 1))))))))))
(assert (forall ((var0 Int) (var1 Int) (var2 Int) (var3 AddrRange) (var4 Int) (var5 Int) (var6 Int) (var7 Heap)) (not (and (inv_main38 var7 var6 var5 var4 var3 var2 var1 var0) (and (is-O_Int (read var7 (nthAddrRange var3 (+ (* 3 var4) (- 1))))) (not (within var3 (nthAddrRange var3 (+ (* 3 var4) (- 1))))))))))
(assert (forall ((var0 Int) (var1 Int) (var2 Int) (var3 AddrRange) (var4 Int) (var5 Int) (var6 Int) (var7 Heap)) (not (and (inv_main38 var7 var6 var5 var4 var3 var2 var1 var0) (and (is-O_Int (read var7 (nthAddrRange var3 (+ (* 3 var4) (- 1))))) (not (is-O_Int (read var7 (nthAddrRange var3 (+ (* 3 var4) (- 1)))))))))))
(assert (forall ((var0 Int) (var1 Int) (var2 Int) (var3 AddrRange) (var4 Int) (var5 Int) (var6 Int) (var7 Heap)) (not (and (inv_main40 var7 var6 var5 var4 var3 var2 var1 var0) (not (is-O_Int (read var7 (nthAddrRange var3 var4))))))))
(assert (forall ((var0 Int) (var1 Int) (var2 Int) (var3 AddrRange) (var4 Int) (var5 Int) (var6 Int) (var7 Heap)) (not (and (inv_main40 var7 var6 var5 var4 var3 var2 var1 var0) (not (within var3 (nthAddrRange var3 var4)))))))
(assert (forall ((var0 Int) (var1 Int) (var2 Int) (var3 AddrRange) (var4 Int) (var5 Int) (var6 Int) (var7 Heap)) (not (and (inv_main40 var7 var6 var5 var4 var3 var2 var1 var0) (not (is-O_Int (read var7 (nthAddrRange var3 var4))))))))
(assert (forall ((var0 Int) (var1 Int) (var2 Int) (var3 AddrRange) (var4 Int) (var5 Int) (var6 Int) (var7 Heap)) (not (and (inv_main40 var7 var6 var5 var4 var3 var2 var1 var0) (not (within var3 (nthAddrRange var3 var4)))))))
(assert (forall ((var0 Int) (var1 Int) (var2 Int) (var3 AddrRange) (var4 Int) (var5 Int) (var6 Int) (var7 Heap)) (not (and (inv_main40 var7 var6 var5 var4 var3 var2 var1 var0) (not (is-O_Int (read var7 (nthAddrRange var3 var4))))))))
(assert (forall ((var0 Int) (var1 Int) (var2 Int) (var3 AddrRange) (var4 Int) (var5 Int) (var6 Int) (var7 Heap)) (not (and (inv_main40 var7 var6 var5 var4 var3 var2 var1 var0) (and (is-O_Int (read var7 (nthAddrRange var3 var4))) (not (within var3 (nthAddrRange var3 var4))))))))
(assert (forall ((var0 Int) (var1 Int) (var2 Int) (var3 AddrRange) (var4 Int) (var5 Int) (var6 Int) (var7 Heap)) (not (and (inv_main40 var7 var6 var5 var4 var3 var2 var1 var0) (and (and (is-O_Int (read var7 (nthAddrRange var3 var4))) (not (<= 0 (+ (getInt (read var7 (nthAddrRange var3 var4))) (* (- 1) var5))))) (not (is-O_Int (read var7 (nthAddrRange var3 var4)))))))))
(assert (forall ((var0 Int) (var1 Int) (var2 Int) (var3 AddrRange) (var4 Int) (var5 Int) (var6 Int) (var7 Heap)) (not (and (inv_main40 var7 var6 var5 var4 var3 var2 var1 var0) (and (and (and (is-O_Int (read var7 (nthAddrRange var3 var4))) (not (<= 0 (+ (getInt (read var7 (nthAddrRange var3 var4))) (* (- 1) var5))))) (is-O_Int (read var7 (nthAddrRange var3 var4)))) (not (within var3 (nthAddrRange var3 var4))))))))
(assert (forall ((var0 Int) (var1 Int) (var2 Int) (var3 Int) (var4 AddrRange) (var5 Int) (var6 Int) (var7 Int) (var8 Heap)) (not (and (inv_main43 var8 var7 var6 var5 var4 var3 var2 var1 var0) (= var0 0)))))
(check-sat)
